QBPP_HJ-_35_025_10_1
35 186 264
25 13 11 5 12 36 19 36 13 28 13 50 12 43 6 7 42 9 11 32 26 13 46 50 26 50 13 34 17 49 29 50 49 19 33
     0     0     0    -3     0     0     0     0   -12   -14   -33   -46     0     0     0     0     0     0   -17     0   -52     0     0     0     0     0     0     0     0     0     0     0     0     0   -91
     0     0     0     0   -43     0     0   -28     0     0     0     0     0     0     0     0     0   -67     0     0     0     0     0   -72     0     0     0     0   -68    -4     0     0     0     0     0
     0     0     0     0     0   -67     0     0     0     0     0     0     0   -44    -1     0     0     0   -60     0     0   -91     0     0     0     0     0   -24     0   -10     0     0   -93     0     0
    -3     0     0     0     0   -24     0     0   -46   -85   -93     0     0   -99     0     0     0     0     0   -65     0     0     0     0     0     0     0   -54     0   -11     0     0     0     0     0
     0   -43     0     0     0     0     0     0    -4     0     0     0     0     0     0     0     0     0     0   -44     0   -87     0   -19   -10     0     0   -27     0     0     0   -44    -8     0     0
     0     0   -67   -24     0     0    -9   -71   -96     0     0     0     0     0   -22     0   -45   -71     0   -22     0     0     0     0     0   -22     0     0     0   -52     0     0     0     0     0
     0     0     0     0     0    -9     0     0     0     0     0     0     0   -89     0     0     0     0     0     0     0     0     0     0   -88     0   -85     0     0     0     0     0     0     0   -17
     0   -28     0     0     0   -71     0     0     0   -51   -73   -39     0   -98   -46     0     0   -95     0   -87     0   -17     0     0     0    -6     0     0   -59     0     0     0     0     0     0
   -12     0     0   -46    -4   -96     0     0     0     0     0     0     0     0     0     0     0     0     0   -19     0     0     0     0     0     0     0     0     0   -79     0     0     0   -22   -98
   -14     0     0   -85     0     0     0   -51     0     0     0     0     0     0     0   -38   -19    -4     0   -47     0   -13   -77   -18     0     0     0     0     0     0     0     0     0     0     0
   -33     0     0   -93     0     0     0   -73     0     0     0     0     0     0     0     0     0   -68     0   -82     0     0     0     0     0   -93     0     0     0     0     0   -34     0     0     0
   -46     0     0     0     0     0     0   -39     0     0     0     0   -68   -10   -87     0     0   -91   -67     0     0     0   -46     0     0     0   -75     0     0     0     0   -94     0     0     0
     0     0     0     0     0     0     0     0     0     0     0   -68     0     0     0     0   -56     0   -45     0     0     0     0     0     0     0     0     0     0     0     0   -30   -81   -71     0
     0     0   -44   -99     0     0   -89   -98     0     0     0   -10     0     0     0    -9   -32  -100     0     0     0     0   -95     0     0     0     0     0     0     0     0   -17     0     0    -6
     0     0    -1     0     0   -22     0   -46     0     0     0   -87     0     0     0   -82     0     0    -4     0     0     0     0   -30     0     0   -30     0     0     0     0     0     0     0     0
     0     0     0     0     0     0     0     0     0   -38     0     0     0    -9   -82     0     0     0     0     0     0   -91   -39     0     0     0     0     0     0     0   -52   -44     0     0     0
     0     0     0     0     0   -45     0     0     0   -19     0     0   -56   -32     0     0     0     0     0     0   -89   -81     0     0   -58     0     0     0     0     0     0     0     0     0     0
     0   -67     0     0     0   -71     0   -95     0    -4   -68   -91     0  -100     0     0     0     0     0     0     0     0     0    -7   -63     0     0     0   -32     0     0     0   -60   -33  -100
   -17     0   -60     0     0     0     0     0     0     0     0   -67   -45     0    -4     0     0     0     0     0     0     0     0     0     0     0     0   -74     0     0     0     0     0     0     0
     0     0     0   -65   -44   -22     0   -87   -19   -47   -82     0     0     0     0     0     0     0     0     0     0   -92     0   -84     0   -24   -82     0     0     0     0     0     0   -43     0
   -52     0     0     0     0     0     0     0     0     0     0     0     0     0     0     0   -89     0     0     0     0     0     0     0     0   -82     0    -5     0   -41     0     0     0   -40     0
     0     0   -91     0   -87     0     0   -17     0   -13     0     0     0     0     0   -91   -81     0     0   -92     0     0     0   -53     0     0     0   -42     0     0     0     0     0     0    -8
     0     0     0     0     0     0     0     0     0   -77     0   -46     0   -95     0   -39     0     0     0     0     0     0     0     0     0     0     0   -81   -82     0     0     0     0     0     0
     0   -72     0     0   -19     0     0     0     0   -18     0     0     0     0   -30     0     0    -7     0   -84     0   -53     0     0     0     0   -56   -34   -58     0     0     0     0     0     0
     0     0     0     0   -10     0   -88     0     0     0     0     0     0     0     0     0   -58   -63     0     0     0     0     0     0     0     0     0     0     0     0   -74     0   -84   -30   -21
     0     0     0     0     0   -22     0    -6     0     0   -93     0     0     0     0     0     0     0     0   -24   -82     0     0     0     0     0     0     0     0     0     0     0     0     0     0
     0     0     0     0     0     0   -85     0     0     0     0   -75     0     0   -30     0     0     0     0   -82     0     0     0   -56     0     0     0   -46   -80     0     0   -35     0     0   -85
     0     0   -24   -54   -27     0     0     0     0     0     0     0     0     0     0     0     0     0   -74     0    -5   -42   -81   -34     0     0   -46     0     0     0   -13   -77     0     0     0
     0   -68     0     0     0     0     0   -59     0     0     0     0     0     0     0     0     0   -32     0     0     0     0   -82   -58     0     0   -80     0     0     0    -9   -51     0     0     0
     0    -4   -10   -11     0   -52     0     0   -79     0     0     0     0     0     0     0     0     0     0     0   -41     0     0     0     0     0     0     0     0     0     0     0     0     0     0
     0     0     0     0     0     0     0     0     0     0     0     0     0     0     0   -52     0     0     0     0     0     0     0     0   -74     0     0   -13    -9     0     0     0   -97     0     0
     0     0     0     0   -44     0     0     0     0     0   -34   -94   -30   -17     0   -44     0     0     0     0     0     0     0     0     0     0   -35   -77   -51     0     0     0     0     0   -96
     0     0   -93     0    -8     0     0     0     0     0     0     0   -81     0     0     0     0   -60     0     0     0     0     0     0   -84     0     0     0     0     0   -97     0     0     0     0
     0     0     0     0     0     0     0     0   -22     0     0     0   -71     0     0     0     0   -33     0   -43   -40     0     0     0   -30     0     0     0     0     0     0     0     0     0     0
   -91     0     0     0     0     0   -17     0   -98     0     0     0     0    -6     0     0     0  -100     0     0     0    -8     0     0   -21     0   -85     0     0     0     0   -96     0     0     0
